(set-logic QF_SLIA)
(declare-fun var0 () String)
(assert (str.in_re var0 (re.++ ((_ re.loop 4 296) (re.++ (re.union (str.to_re "%\u0022") (re.union (str.to_re ",8") (re.union (str.to_re "l+!") (str.to_re "i")))) (re.++ (re.union (str.to_re "`a") (re.union (str.to_re "%L") (re.union (str.to_re "!8t") (str.to_re "c:.")))) (re.++ (re.union (str.to_re "PN4") (re.union (str.to_re "ep)") (re.union (str.to_re "Tg3") (str.to_re "*")))) (re.union (str.to_re "j+") (re.union (str.to_re "8") (re.union (str.to_re "c9Y") (str.to_re "o>")))))))) (re.++ ((_ re.loop 9 271) (re.++ (re.union (str.to_re "<") (re.union (str.to_re "nR") (re.union (str.to_re "B6") (str.to_re "h=")))) (re.++ (re.union (str.to_re "~e") (re.union (str.to_re "*w4") (re.union (str.to_re "TAz") (str.to_re "7O")))) (re.++ (re.union (str.to_re "p{F") (re.union (str.to_re "=") (re.union (str.to_re "\u0022") (str.to_re "]-")))) (re.union (str.to_re "u") (re.union (str.to_re "2{") (re.union (str.to_re "8i") (str.to_re "t")))))))) (re.++ ((_ re.loop 13 972) (re.++ (re.union (str.to_re ",") (re.union (str.to_re "<'") (re.union (str.to_re "a") (str.to_re "eF")))) (re.++ (re.union (str.to_re "$d") (re.union (str.to_re "e") (re.union (str.to_re "3") (str.to_re "E")))) (re.++ (re.union (str.to_re "x") (re.union (str.to_re "=2") (re.union (str.to_re "4") (str.to_re "EbD")))) (re.union (str.to_re "R") (re.union (str.to_re "<L") (re.union (str.to_re "Gh") (str.to_re "I")))))))) ((_ re.loop 17 224) (re.++ (re.union (str.to_re "3J~") (re.union (str.to_re "Kjj") (re.union (str.to_re "^") (str.to_re "Xc}")))) (re.++ (re.union (str.to_re "v9") (re.union (str.to_re "9Z{") (re.union (str.to_re "~{>") (str.to_re "m")))) (re.++ (re.union (str.to_re "VG") (re.union (str.to_re ",") (re.union (str.to_re "Fs") (str.to_re "N&")))) (re.union (str.to_re "]^t") (re.union (str.to_re "e$P") (re.union (str.to_re "$I") (str.to_re "W")))))))))))))
(assert (not (str.in_re var0 (re.++ ((_ re.loop 15 174) (re.++ (re.union (str.to_re "f|") (re.union (str.to_re "/\u0022") (re.union (str.to_re "L") (str.to_re "e")))) (re.++ (re.union (str.to_re "u7") (re.union (str.to_re "AL") (re.union (str.to_re "y") (str.to_re "c")))) (re.++ (re.union (str.to_re "N") (re.union (str.to_re "T") (re.union (str.to_re "Zi") (str.to_re "^Q~")))) (re.union (str.to_re "^i2") (re.union (str.to_re "s") (re.union (str.to_re "&A&") (str.to_re "|")))))))) (re.++ ((_ re.loop 13 854) (re.++ (re.union (str.to_re "Z(") (re.union (str.to_re "u") (re.union (str.to_re "l\u0022X") (str.to_re "x")))) (re.++ (re.union (str.to_re "d#j") (re.union (str.to_re "gLX") (re.union (str.to_re "V^") (str.to_re ";")))) (re.++ (re.union (str.to_re "8S") (re.union (str.to_re "h;J") (re.union (str.to_re "^3e") (str.to_re "gA")))) (re.union (str.to_re "1.") (re.union (str.to_re "l+") (re.union (str.to_re "UX") (str.to_re "s")))))))) (re.++ ((_ re.loop 0 193) (re.++ (re.union (str.to_re "6Bz") (re.union (str.to_re "}") (re.union (str.to_re "@") (str.to_re "ImY")))) (re.++ (re.union (str.to_re "p") (re.union (str.to_re "E(") (re.union (str.to_re "W|") (str.to_re "=H")))) (re.++ (re.union (str.to_re "{JO") (re.union (str.to_re "-C%") (re.union (str.to_re "a") (str.to_re ";R")))) (re.union (str.to_re "!ug") (re.union (str.to_re "bl") (re.union (str.to_re "JZj") (str.to_re "e.")))))))) ((_ re.loop 12 224) (re.++ (re.union (str.to_re "L") (re.union (str.to_re "i@6") (re.union (str.to_re "Dlw") (str.to_re "(")))) (re.++ (re.union (str.to_re "g]") (re.union (str.to_re "D2") (re.union (str.to_re "Tp") (str.to_re "2;")))) (re.++ (re.union (str.to_re "=") (re.union (str.to_re "i[e") (re.union (str.to_re "\\8<") (str.to_re "R")))) (re.union (str.to_re "e;=") (re.union (str.to_re "4") (re.union (str.to_re "V") (str.to_re "W"))))))))))))))
(assert (not (str.in_re var0 (re.++ (re.* re.allchar) (re.++ (re.union (str.to_re "<") (re.union (str.to_re ">") (re.union (str.to_re "'") (re.union (str.to_re "\u0022") (str.to_re "&"))))) (re.* re.allchar))))))
(assert (<= 50 (str.len var0)))
(check-sat)
(get-model)
